RT is False
Default write of storage_offers_DA.csv just to have a file (but constraint should be inactive)
Reading model...
...model read.
creating competitive generators file...
...competitive generators recorded.
Loading data...
.. day-ahead data with real-time VRE data read.
Compiling instance...
...instance created.
Creating Offer Mitigation (model will solve as dispatch if TRUE)...
NOTE: storage offers will not be mitigated
...storage offer mitigation file created
Converting model to MPEC...
...converted
NOTE: initial MIP solve with only storage competitive to get feasible solution
Solving...

Welcome to IBM(R) ILOG(R) CPLEX(R) Interactive Optimizer 12.9.0.0
  with Simplex, Mixed Integer & Barrier Optimizers
5725-A06 5725-A29 5724-Y48 5724-Y49 5724-Y54 5724-Y55 5655-Y21
Copyright IBM Corp. 1988, 2019.  All Rights Reserved.

Type 'help' for a list of available commands.
Type 'help' followed by a command name for more
information on commands.

CPLEX> Logfile 'cplex.log' closed.
Logfile 'C:\Users\Luke\Desktop\test919\logs\tmpx8s0hsdn.cplex.log' open.
CPLEX> New value for parallel optimization mode: -1
CPLEX> New value for mixed integer optimality gap tolerance: 0.01
CPLEX> New value for integrality tolerance: 1e-09
CPLEX> New value for feasibility tolerance: 0.01
CPLEX> New value for deterministic time limit in ticks: 75000
CPLEX> Problem 'C:\Users\Luke\Desktop\test919\logs\tmpx71uhfji.pyomo.lp' read.
Read time = 0.20 sec. (14.73 ticks)
CPLEX> Problem name         : C:\Users\Luke\Desktop\test919\logs\tmpx71uhfji.pyomo.lp
Objective sense      : Maximize
Variables            :   53805  [Nneg: 1,  Box: 22000,  Free: 4464,
                                 Binary: 27340]
Objective nonzeros   :    9076
Linear constraints   :  123205  [Less: 41346,  Greater: 59096,  Equal: 22763]
  Nonzeros           :  291703
  RHS nonzeros       :   67489

Variables            : Min LB: -5000.000        Max UB: 1000000.       
Objective nonzeros   : Min   : 0.7833333        Max   : 2500.000       
Linear constraints   :
  Nonzeros           : Min   : 0.7833333        Max   : 1000000.       
  RHS nonzeros       : Min   : 0.7833333        Max   : 1000000.       
CPLEX> CPXPARAM_Parallel                                -1
CPXPARAM_Simplex_Tolerances_Feasibility          0.01
CPXPARAM_DetTimeLimit                            75000
CPXPARAM_MIP_Tolerances_MIPGap                   0.01
CPXPARAM_MIP_Tolerances_Integrality              1.0000000000000001e-09
Tried aggregator 3 times.
MIP Presolve eliminated 88768 rows and 19116 columns.
MIP Presolve added 3352 rows and 0 columns.
MIP Presolve modified 24792 coefficients.
Aggregator did 12954 substitutions.
Reduced MIP has 24835 rows, 21179 columns, and 70798 nonzeros.
Reduced MIP has 8382 binaries, 0 generals, 0 SOSs, and 0 indicators.
Presolve time = 0.23 sec. (176.10 ticks)
Probing fixed 411 vars, tightened 2864 bounds.
Probing time = 1.45 sec. (902.93 ticks)
Tried aggregator 2 times.
MIP Presolve eliminated 936 rows and 825 columns.
MIP Presolve modified 2232 coefficients.
Aggregator did 36 substitutions.
Reduced MIP has 23863 rows, 20318 columns, and 67978 nonzeros.
Reduced MIP has 7971 binaries, 0 generals, 0 SOSs, and 0 indicators.
Presolve time = 0.11 sec. (68.62 ticks)
Probing time = 0.03 sec. (16.52 ticks)
Clique table members: 6484.
MIP emphasis: balance optimality and feasibility.
MIP search method: dynamic search.
Parallel mode: opportunistic, using up to 24 threads.
Root relaxation solution time = 0.38 sec. (526.89 ticks)

        Nodes                                         Cuts/
   Node  Left     Objective  IInf  Best Integer    Best Bound    ItCnt     Gap

      0     0        7.1559   883                      7.1559     3400         
      0     0        7.1559   653                   Cuts: 920     3793         
      0     0        7.1559   502                   Cuts: 580     4033         
      0     0        7.1559   423                   Cuts: 270     4151         
      0     0        7.1559   395                   Cuts: 111     4198         
      0     0        7.1559   374                    Cuts: 92     4231         
      0     0        7.1559   364                    Cuts: 84     4250         
      0     0        7.1559   360                    Cuts: 23     4254         
      0     0        7.1559   356                    Cuts: 17     4258         
      0    15    infeasible                           Cuts: 4     4370         
Elapsed time = 9.64 sec. (6531.21 ticks, tree = 0.02 MB, solutions = 0)
    222    84        6.6214   352                      7.1559     6872         
    712   307        6.6214   329                      7.1559    10102         
    977   415        6.6214   330                      7.1559    10766         
   1348   896        6.6214   282                      7.1559    11802         
   1906  1244        6.4670   254                      7.1559    12470         
   2647  1698        6.6214   242                      7.1559    13214         
   3285  2283        7.1559   212                      7.1559    13921         
   3758  2433    -4075.3760   189                      7.1559    14116         
   4349  3183    -4074.6872   141                      7.1559    15413         
   7067  4411    -4074.2429    55                      7.1559    19901         
Elapsed time = 18.77 sec. (9634.24 ticks, tree = 38.31 MB, solutions = 0)
   8784  6359        7.1559   180                      7.1559    22679         
   9572  7348        7.1559   323                      7.1559    29879         
  10638  8058        7.1559   299                      7.1559    34640         
  12504  8521        7.1559   277                      7.1559    43774         
  14669  9091       -6.8511    78                      7.1559    48508         
  16641  8937        7.1559   265                      7.1559    51523         
  18496 10403    -1556.9431   125                      7.1559    63602         
  19877 13112        6.6214   325                      7.1559    83369         
  21098 12983        6.6214   183                      7.1559    82388         
  22139 14851        7.1559   194                      7.1559    88014         
Elapsed time = 42.61 sec. (19175.31 ticks, tree = 152.65 MB, solutions = 0)
  23072 13705   -18895.0115   104                      7.1559    85395         
  23969 13808        6.1677    94                      7.1559    85901         
  24643 19437        6.4670    17                      7.1559   116896         
  25271 18928    -1449.2610   108                      7.1559   115239         
  25976 22229    -2888.3905   181                      7.1559   132410         
  26714 18091        7.1559   215                      7.1559   106476         
  27435 21982     -214.7649   166                      7.1559   131808         
  27880 19450        6.4670    12                      7.1559   117399         
  28348 23535    -9949.3988   168                      7.1559   142506         
  28938 23672        6.1677   117                      7.1559   142872         
Elapsed time = 55.17 sec. (28720.62 ticks, tree = 249.17 MB, solutions = 0)
  29501 21037        6.1677    19                      7.1559   132359         
  29961 22232        7.1559   216                      7.1559   137060         
  30729 23711     -707.2294    10                      7.1559   149136         
  31613 22486        6.1677    68                      7.1559   137935         
  32481 23749        6.1677    19                      7.1559   146264         
  33225 23758    infeasible                            7.1559   146289         
  34084 24034    infeasible                            7.1559   154540         
  34644 23928        6.1677   165                      7.1559   147044         
  35197 26043     -403.4440   176                      7.1559   169078         
  35725 28526        6.1677    14                      7.1559   180114         
Elapsed time = 71.20 sec. (38283.34 ticks, tree = 304.86 MB, solutions = 0)
  36165 26625        7.1559   123                      7.1559   170210         
  36707 24614    infeasible                            7.1559   161147         
  37118 28532        6.1677    12                      7.1559   180301         
  37746 25278    -2888.3905   175                      7.1559   167869         
  38605 30933        7.1559   227                      7.1559   186455         
  39628 31066        7.1559   139                      7.1559   186573         
  40560 28274     -543.3863   138                      7.1559   179816         
  41538 26360        7.1559   284                      7.1559   169845         
  42509 31474        7.1559   126                      7.1559   187244         
  43566 32779        7.1559   144                      7.1559   199152         
Elapsed time = 81.56 sec. (47827.15 ticks, tree = 349.43 MB, solutions = 0)
  44856 28878        7.1559   133                      7.1559   180478         
  45856 30718        7.1559   194                      7.1559   188365         
  46563 33553        7.1559   171                      7.1559   204412         
  47762 33069     -330.9187   120                      7.1559   200068         
  48736 31137        7.1559   165                      7.1559   189041         
  49467 31263        7.1559   214                      7.1559   189135         
  50267 33954        7.1559   151                      7.1559   204704         
  51060 33762        7.1559   202                      7.1559   200543         
  51772 31659        7.1559   215                      7.1559   189515         
  52373 34543        7.1559   165                      7.1559   205131         
Elapsed time = 86.86 sec. (57376.01 ticks, tree = 367.56 MB, solutions = 0)
  53089 34478        7.1559   154                      7.1559   213295         
  53982 33024        7.1559   128                      7.1559   198959         
  54734 35051        7.1559   109                      7.1559   205601         
  55362 34939        7.1559   206                      7.1559   201372         
  56072 35407    -1377.5493   126                      7.1559   205917         
  56769 35146        7.1559   113                      7.1559   214549         
  57558 35741        7.1559   180                      7.1559   206225         
  58120 35892        6.6214   201                      7.1559   206350         
  58780 35777        7.1559   159                      7.1559   202599         
  59603 35249     -861.3047   150                      7.1559   215000         
Elapsed time = 92.63 sec. (66924.03 ticks, tree = 376.87 MB, solutions = 0)
  60422 36394     -145.1498   128                      7.1559   206869         
  61327 36570        7.1559   124                      7.1559   207036         
  62122 36460        7.1559   101                      7.1559   203325         
  62881 32734    infeasible                            7.1559   202338         
  63215 36546    -2387.3862    63                      7.1559   217268         
  63428 36705        7.1559    92                      7.1559   217834         
  63516 36755    infeasible                            7.1559   217888         
  63544 34757        6.1677    12                      7.1559   213909         

Clique cuts applied:  25
Cover cuts applied:  1
Implied bound cuts applied:  15
Flow cuts applied:  667
Mixed integer rounding cuts applied:  13
Gomory fractional cuts applied:  44

Root node processing (before b&c):
  Real time             =    9.14 sec. (6519.46 ticks)
Parallel b&c, 24 threads:
  Real time             =   87.41 sec. (69600.44 ticks)
  Sync time (average)   =    0.25 sec.
  Wait time (average)   =    0.00 sec.
                          ------------
Total (root+branch&cut) =   96.55 sec. (76119.89 ticks)


MIP - Deterministic time limit exceeded, no integer solution.
Current MIP best bound =  7.1558691776e+00 (gap is infinite)
Solution time =   96.56 sec.  Iterations = 267006  Nodes = 63564 (58701)
Deterministic time = 76120.05 ticks  (788.30 ticks/sec)

CPLEX> CPLEX Error  1217: No solution exists.
No file written.
CPLEX> gap is infinite, so writing 0
NOTE: no warmstart specified for MIP iteration, default behavior is true
NOTE: resolving with all competitive generators using storage-only solution to warmstart
Solving...

Welcome to IBM(R) ILOG(R) CPLEX(R) Interactive Optimizer 12.9.0.0
  with Simplex, Mixed Integer & Barrier Optimizers
5725-A06 5725-A29 5724-Y48 5724-Y49 5724-Y54 5724-Y55 5655-Y21
Copyright IBM Corp. 1988, 2019.  All Rights Reserved.

Type 'help' for a list of available commands.
Type 'help' followed by a command name for more
information on commands.

CPLEX> Logfile 'cplex.log' closed.
Logfile 'C:\Users\Luke\Desktop\test919\logs\tmpehap8c5c.cplex.log' open.
CPLEX> New value for parallel optimization mode: -1
CPLEX> New value for mixed integer optimality gap tolerance: 0.01
CPLEX> New value for integrality tolerance: 1e-09
CPLEX> New value for feasibility tolerance: 0.01
CPLEX> New value for deterministic time limit in ticks: 75000
CPLEX> Problem 'C:\Users\Luke\Desktop\test919\logs\tmpv_4a587r.pyomo.lp' read.
Read time = 0.20 sec. (14.75 ticks)
CPLEX> MIP start file 'C:\Users\Luke\Desktop\test919\logs\tmp99iunlbt.cplex.mst' read.
CPLEX> Problem name         : C:\Users\Luke\Desktop\test919\logs\tmpv_4a587r.pyomo.lp
Objective sense      : Maximize
Variables            :   54525  [Nneg: 1,  Box: 22720,  Free: 4464,
                                 Binary: 27340]
Objective nonzeros   :    9796
Linear constraints   :  123205  [Less: 41346,  Greater: 59096,  Equal: 22763]
  Nonzeros           :  291703
  RHS nonzeros       :   67489

Variables            : Min LB: -5000.000        Max UB: 1000000.       
Objective nonzeros   : Min   : 0.7833333        Max   : 2500.000       
Linear constraints   :
  Nonzeros           : Min   : 0.7833333        Max   : 1000000.       
  RHS nonzeros       : Min   : 0.7833333        Max   : 1000000.       
CPLEX> CPXPARAM_Parallel                                -1
CPXPARAM_Simplex_Tolerances_Feasibility          0.01
CPXPARAM_DetTimeLimit                            75000
CPXPARAM_MIP_Tolerances_MIPGap                   0.01
CPXPARAM_MIP_Tolerances_Integrality              1.0000000000000001e-09
Warning:  No solution found from 1 MIP starts.
Retaining values of one MIP start for possible repair.
Tried aggregator 3 times.
MIP Presolve eliminated 88768 rows and 19836 columns.
MIP Presolve added 3352 rows and 0 columns.
MIP Presolve modified 24792 coefficients.
Aggregator did 12954 substitutions.
Reduced MIP has 24835 rows, 21179 columns, and 70798 nonzeros.
Reduced MIP has 8382 binaries, 0 generals, 0 SOSs, and 0 indicators.
Presolve time = 0.23 sec. (176.47 ticks)
Probing fixed 411 vars, tightened 2864 bounds.
Probing time = 1.44 sec. (902.93 ticks)
Tried aggregator 2 times.
MIP Presolve eliminated 936 rows and 825 columns.
MIP Presolve modified 2232 coefficients.
Aggregator did 36 substitutions.
Reduced MIP has 23863 rows, 20318 columns, and 67978 nonzeros.
Reduced MIP has 7971 binaries, 0 generals, 0 SOSs, and 0 indicators.
Presolve time = 0.09 sec. (68.62 ticks)
Probing time = 0.02 sec. (16.52 ticks)
Clique table members: 6484.
MIP emphasis: balance optimality and feasibility.
MIP search method: dynamic search.
Parallel mode: opportunistic, using up to 24 threads.
Root relaxation solution time = 0.36 sec. (526.89 ticks)

        Nodes                                         Cuts/
   Node  Left     Objective  IInf  Best Integer    Best Bound    ItCnt     Gap

      0     0        7.1559   883                      7.1559     3400         
      0     0        7.1559   653                   Cuts: 920     3793         
      0     0        7.1559   502                   Cuts: 580     4033         
      0     0        7.1559   423                   Cuts: 270     4151         
      0     0        7.1559   395                   Cuts: 111     4198         
      0     0        7.1559   374                    Cuts: 92     4231         
      0     0        7.1559   364                    Cuts: 84     4250         
      0     0        7.1559   360                    Cuts: 23     4254         
      0     0        7.1559   356                    Cuts: 17     4258         
Repair heuristic found nothing.
      0    13    infeasible                           Cuts: 4     4364         
Elapsed time = 9.80 sec. (6571.18 ticks, tree = 0.02 MB, solutions = 0)
    240    62        6.6214   347                      7.1559     5376         
    781   180        6.5312   335                      7.1559     7702         
   1119   507        6.6214   323                      7.1559     9162         
   1540  1430        6.6214   306                      7.1559    10885         
   2383  1385   -16725.0411   248                      7.1559    10849         
   3222  2255    -3946.1238   201                      7.1559    12075         
   3749  2786    -3945.5893   190                      7.1559    12559         
   4277  3069    -4074.1527   162                      7.1559    13800         
   4833  3484    -4074.7774   185                      7.1559    15208         
   7248  7176        7.1559   146                      7.1559    20307         
Elapsed time = 18.95 sec. (9676.22 ticks, tree = 68.62 MB, solutions = 0)
   9049  7451    -4267.3487    48                      7.1559    20637         
  10352  8314    -5271.1414    23                      7.1559    28013         
  12179  9577     -375.1989   181                      7.1559    54936         
  14179 10283     -993.7039   130                      7.1559    62687         
  16059 10948        7.1559   156                      7.1559    65476         
  17621 12079        7.1559   155                      7.1559    81636         
  18885 11877        6.1677    63                      7.1559    79798         
  19994 13805        6.1677    65                      7.1559    91544         
  20961 16188        7.1559   196                      7.1559   113786         
  21753 15796        6.1677    65                      7.1559   111114         
Elapsed time = 50.20 sec. (19216.50 ticks, tree = 168.70 MB, solutions = 0)
  22384 18375       -1.3257    99                      7.1559   129562         
  23079 18572        6.1677    80                      7.1559   131054         
  23897 21892        7.1559   137                      7.1559   168257         
  24940 20090        7.1559    88                      7.1559   146926         
  25994 22075   -12959.8193    97                      7.1559   168664         
  26982 20204   -15378.4662    88                      7.1559   146730         
  28111 20653    infeasible                            7.1559   168159         
  29031 21467   -10462.9007    59                      7.1559   168466         
  30013 25219        7.1559   147                      7.1559   197804         
  30896 21658    -5670.7886   111                      7.1559   169198         
Elapsed time = 66.58 sec. (28760.41 ticks, tree = 238.43 MB, solutions = 0)
  31680 20603        6.1677     8                      7.1559   161038         
  32534 26118     -758.9698   166                      7.1559   208982         
  33091 23024        7.0657   148                      7.1559   180100         
  33607 22814   -12778.8196    90                      7.1559   180458         
  34102 22914   -26940.4185    85                      7.1559   180880         
  34443 23051        7.0657   161                      7.1559   181155         
  34948 25515     -558.5931   151                      7.1559   199109         
  35511 25038        7.1559    47                      7.1559   194554         
  36182 23589        7.0657    76                      7.1559   185370         
  36947 26427     -571.3140   163                      7.1559   209788         
Elapsed time = 79.05 sec. (38315.75 ticks, tree = 299.05 MB, solutions = 0)
  37730 25969   -17718.3731    46                      7.1559   204305         
  38333 26037   -17718.3731    45                      7.1559   206477         
  38859 23290        5.9833   138                      7.1559   186315         
  39326 26151        6.6214    51                      7.1559   211909         
  40118 26746        7.1559    36                      7.1559   213050         
  40630 27005        7.1559   130                      7.1559   215032         
  41082 29648        7.1559   199                      7.1559   247758         
  41430 26907     -691.7725    13                      7.1559   211623         
  41979 30073     -424.5653    47                      7.1559   248101         
  42264 27042        7.1559    45                      7.1559   215787         
Elapsed time = 84.48 sec. (47867.90 ticks, tree = 306.46 MB, solutions = 0)
  42423 30098        7.1559    38                      7.1559   248789         
  42598 27187    -3877.8202    33                      7.1559   219105         
  42806 28861     -543.3740   179                      7.1559   231098         
  43157 29069     -165.1193   190                      7.1559   231269         
  43443 29250    infeasible                            7.1559   231984         
  43610 27549        6.1677     9                      7.1559   222373         
  43691 31087      -16.3499     9                      7.1559   262850         
  43763 30142    infeasible                            7.1559   253131         
  43834 27552        6.1677     7                      7.1559   222199         
  43898 27552    infeasible                            7.1559   222413         
Elapsed time = 89.36 sec. (57495.32 ticks, tree = 313.40 MB, solutions = 0)
  43957 31095      -16.3499     8                      7.1559   263145         
  44023 31906    infeasible                            7.1559   266849         
  44088 28575        6.1677     7                      7.1559   230348         
  44144 29029    -5649.7701    16                      7.1559   242463         
  44196 30169    infeasible                            7.1559   254396         
  44248 31408        6.1677     9                      7.1559   263562         
  44376 31978   -15929.0519   129                      7.1559   269453         
  44538 32099   -92040.9017    64                      7.1559   270043         
  44703 32226        7.0657   120                      7.1559   270684         
  44853 31394    infeasible                            7.1559   264200         
Elapsed time = 92.48 sec. (67124.14 ticks, tree = 363.04 MB, solutions = 0)
  44904 31115      -16.3499     7                      7.1559   263662         
  44945 32352        6.1677    12                      7.1559   270974         
  44967 31425    infeasible                            7.1559   264316         
  44995 31427        6.1677     6                      7.1559   264527         
  45024 31908    infeasible                            7.1559   267152         
  45044 31908    infeasible                            7.1559   267153         
  45068 31897        6.1677     9                      7.1559   266955         
  45073 31894    infeasible                            7.1559   266450         

Clique cuts applied:  25
Cover cuts applied:  5
Implied bound cuts applied:  15
Flow cuts applied:  671
Mixed integer rounding cuts applied:  13
Gomory fractional cuts applied:  44

Root node processing (before b&c):
  Real time             =    9.30 sec. (6560.02 ticks)
Parallel b&c, 24 threads:
  Real time             =   83.44 sec. (68512.98 ticks)
  Sync time (average)   =    0.26 sec.
  Wait time (average)   =    0.00 sec.
                          ------------
Total (root+branch&cut) =   92.73 sec. (75073.00 ticks)


MIP - Deterministic time limit exceeded, no integer solution.
Current MIP best bound =  7.1558691776e+00 (gap is infinite)
Solution time =   92.75 sec.  Iterations = 358321  Nodes = 45075 (39880)
Deterministic time = 75073.15 ticks  (809.41 ticks/sec)

CPLEX> CPLEX Error  1217: No solution exists.
No file written.
CPLEX> gap is infinite, so writing 0
Exporting results... 
